GLPSOL--GLPK LP/MIP Solver 5.0
Parameter(s) specified in the command line:
 --lp ../modeles/5_474.lp --log 5_474.log
Reading problem data from '../modeles/5_474.lp'...
2391 rows, 4750 columns, 16605 non-zeros
2370 integer variables, all of which are binary
7152 lines were read
GLPK Integer Optimizer 5.0
2391 rows, 4750 columns, 16605 non-zeros
2370 integer variables, all of which are binary
Preprocessing...
2350 constraint coefficient(s) were reduced
2391 rows, 4745 columns, 16600 non-zeros
2370 integer variables, all of which are binary
Scaling...
 A: min|aij| =  7.121e-05  max|aij| =  4.000e+00  ratio =  5.617e+04
GM: min|aij| =  6.496e-02  max|aij| =  1.539e+01  ratio =  2.370e+02
EQ: min|aij| =  4.219e-03  max|aij| =  1.000e+00  ratio =  2.370e+02
2N: min|aij| =  3.906e-03  max|aij| =  1.773e+00  ratio =  4.538e+02
Constructing initial basis...
Size of triangular part is 2391
Solving LP relaxation...
GLPK Simplex Optimizer 5.0
2391 rows, 4745 columns, 16600 non-zeros
      0: obj =   1.000000000e+01 inf =   2.450e+01 (11)
    134: obj =   4.394478915e-01 inf =   0.000e+00 (0)
*   457: obj =  -2.236065903e+00 inf =   1.444e-15 (0)
OPTIMAL LP SOLUTION FOUND
Integer optimization begins...
Long-step dual simplex will be used
+   457: mip =     not found yet >=              -inf        (1; 0)
+   849: >>>>>  -2.236065903e+00 >=  -2.236065903e+00 < 0.1% (393; 0)
+   849: mip =  -2.236065903e+00 >=     tree is empty   0.0% (0; 785)
INTEGER OPTIMAL SOLUTION FOUND
Time used:   1.6 secs
Memory used: 6.9 Mb (7272641 bytes)
